(set-logic QF_S)
(declare-fun var0 () String)
(assert (str.in.re var0 (re.++ (re.union (re.+ (str.to.re "000")) (re.+ (str.to.re "1"))) (re.++ (re.* (re.* (str.to.re "2"))) (re.++ (re.+ (re.* (str.to.re "333"))) (re.++ (re.* (re.* (str.to.re "4"))) (re.++ (re.* (re.* (str.to.re "555"))) (re.++ (re.+ (re.* (str.to.re "66"))) (re.++ (re.union (re.+ (str.to.re "77")) (re.+ (str.to.re "888"))) (re.++ (re.+ (re.union (str.to.re "9") (str.to.re "aa"))) (re.++ (re.+ (re.union (str.to.re "bbb") (str.to.re "c"))) (re.++ (re.+ (re.union (str.to.re "dd") (str.to.re "e"))) (re.++ (re.* (re.union (str.to.re "fff") (str.to.re "g"))) (re.++ (re.* (re.* (str.to.re "hh"))) (re.++ (re.* (re.+ (str.to.re "ii"))) (re.++ (re.* (re.* (str.to.re "jj"))) (re.++ (re.* (re.* (str.to.re "k"))) (re.++ (re.+ (re.union (str.to.re "l") (str.to.re "mmm"))) (re.++ (re.union (re.+ (str.to.re "nn")) (re.+ (str.to.re "oo"))) (re.++ (re.union (re.union (str.to.re "pp") (str.to.re "q")) (re.union (str.to.re "r") (str.to.re "s"))) (re.++ (re.+ (re.union (str.to.re "t") (str.to.re "uuu"))) (re.++ (re.+ (re.* (str.to.re "vvv"))) (re.++ (re.union (re.* (str.to.re "ww")) (re.* (str.to.re "xx"))) (re.++ (re.+ (re.+ (str.to.re "yyy"))) (re.++ (re.* (re.+ (str.to.re "zzz"))) (re.++ (re.+ (re.union (str.to.re "A") (str.to.re "BB"))) (re.union (re.* (str.to.re "C")) (re.* (str.to.re "D")))))))))))))))))))))))))))))
(check-sat)